(declare-const m Int)
(declare-const p Int)
(declare-const x Int)
(declare-const z Int)
(assert (not (=> (and (and (>= x 0) (= (- z x) (- p m))) (> x 0)) (and (>= (- x 1) 0) (= (- (- z 1) (- x 1)) (- p m))))))
(check-sat)